p tw 64 113
5 10
5 20
2 9
2 14
2 12
2 17
4 18
4 11
10 64
10 11
10 15
10 14
10 19
56 57
42 58
42 47
42 54
24 39
24 40
25 34
25 32
25 37
14 62
46 47
46 48
46 59
57 59
57 64
29 34
29 35
29 64
29 32
29 36
61 64
61 62
1 15
1 9
1 4
1 11
1 16
6 13
21 27
21 40
21 24
21 28
33 35
28 37
28 61
28 38
28 33
9 14
13 20
41 62
41 59
41 60
45 60
45 55
45 56
17 20
32 40
34 39
22 23
22 32
22 36
22 63
22 24
22 28
22 35
44 50
44 56
44 59
59 61
59 63
27 33
27 35
27 38
12 14
12 19
49 59
49 53
49 52
7 20
7 13
3 13
3 14
3 19
3 6
35 40
35 62
48 53
48 54
48 58
18 19
50 54
50 55
16 61
31 39
11 14
11 13
11 17
11 63
43 48
26 40
55 58
23 26
8 13
58 60
30 34
30 38
51 57
51 54
47 48
47 52
